c CNF file generated from BLIF2CNF script.
c Original BLIF file was TESTFILE.blif
p cnf 146 334
-1 0
2 0
-3 0
4 -7 0
5 -7 0
7 -4 -5  0
-7 6 0
-4 -8 0
-5 -8 0
8 4 5  0
-8 6 0
-6 7 8  0
-6 -10 0
10 6  0
-10 9 0
-9 10  0
11 -14 0
12 -14 0
14 -11 -12  0
-14 13 0
-11 -15 0
-12 -15 0
15 11 12  0
-15 13 0
-13 14 15  0
-4 -17 0
-5 -17 0
17 4 5  0
-17 16 0
-16 17  0
16 -19 0
-13 -19 0
19 -16 13  0
-19 18 0
-16 -20 0
13 -20 0
20 16 -13  0
-20 18 0
-18 19 20  0
21 -24 0
-22 -24 0
24 -21 22  0
-24 23 0
-21 -25 0
22 -25 0
25 21 -22  0
-25 23 0
-23 24 25  0
-11 -27 0
27 11  0
-27 26 0
-12 -28 0
28 12  0
-28 26 0
-26 27 28  0
-16 -30 0
-13 -30 0
30 16 13  0
-30 29 0
-26 -31 0
31 26  0
-31 29 0
-29 30 31  0
29 -33 0
-23 -33 0
33 -29 23  0
-33 32 0
-29 -34 0
23 -34 0
34 29 -23  0
-34 32 0
-32 33 34  0
35 -38 0
36 -38 0
38 -35 -36  0
-38 37 0
-35 -39 0
-36 -39 0
39 35 36  0
-39 37 0
-37 38 39  0
21 -41 0
22 -41 0
41 -21 -22  0
-41 40 0
-40 41  0
-23 -43 0
-40 -43 0
43 23 40  0
-43 42 0
-29 -44 0
-40 -44 0
44 29 40  0
-44 42 0
-42 43 44  0
42 -46 0
-37 -46 0
46 -42 37  0
-46 45 0
-42 -47 0
37 -47 0
47 42 -37  0
-47 45 0
-45 46 47  0
35 -49 0
-36 -49 0
49 -35 36  0
-49 48 0
-35 -50 0
36 -50 0
50 35 -36  0
-50 48 0
-48 49 50  0
35 -52 0
36 -52 0
52 -35 -36  0
-52 51 0
-51 52  0
-48 -54 0
-51 -54 0
54 48 51  0
-54 53 0
-40 -55 0
-51 -55 0
55 40 51  0
-55 53 0
-53 54 55  0
-4 -57 0
57 4  0
-57 56 0
-5 -58 0
58 5  0
-58 56 0
-56 57 58  0
56 -60 0
60 -56  0
-60 59 0
13 -61 0
61 -13  0
-61 59 0
-59 60 61  0
59 -63 0
26 -63 0
63 -59 -26  0
-63 62 0
-62 63  0
-48 -65 0
65 48  0
-65 64 0
-23 -66 0
66 23  0
-66 64 0
-64 65 66  0
-64 -68 0
-62 -68 0
68 64 62  0
-68 67 0
-53 -69 0
69 53  0
-69 67 0
-67 68 69  0
16 -71 0
71 -16  0
-71 70 0
13 -72 0
72 -13  0
-72 70 0
-70 71 72  0
70 -74 0
26 -74 0
74 -70 -26  0
-74 73 0
-73 74  0
-64 -76 0
-73 -76 0
76 64 73  0
-76 75 0
-53 -77 0
77 53  0
-77 75 0
-75 76 77  0
56 -79 0
-13 -79 0
79 -56 13  0
-79 78 0
-56 -80 0
13 -80 0
80 56 -13  0
-80 78 0
-78 79 80  0
-56 -82 0
-13 -82 0
82 56 13  0
-82 81 0
-26 -83 0
83 26  0
-83 81 0
-81 82 83  0
81 -85 0
-23 -85 0
85 -81 23  0
-85 84 0
-81 -86 0
23 -86 0
86 81 -23  0
-86 84 0
-84 85 86  0
-23 -88 0
-40 -88 0
88 23 40  0
-88 87 0
-81 -89 0
-40 -89 0
89 81 40  0
-89 87 0
-87 88 89  0
87 -91 0
-37 -91 0
91 -87 37  0
-91 90 0
-87 -92 0
37 -92 0
92 87 -37  0
-92 90 0
-90 91 92  0
5 -94 0
94 -5  0
-94 93 0
-93 94  0
12 -96 0
96 -12  0
-96 95 0
-95 96  0
22 -98 0
98 -22  0
-98 97 0
-97 98  0
36 -100 0
100 -36  0
-100 99 0
-99 100  0
4 -102 0
102 -4  0
-102 101 0
-101 102  0
11 -104 0
104 -11  0
-104 103 0
-103 104  0
21 -106 0
106 -21  0
-106 105 0
-105 106  0
35 -108 0
108 -35  0
-108 107 0
-107 108  0
6 -110 0
110 -6  0
-110 109 0
-109 110  0
18 -112 0
112 -18  0
-112 111 0
-111 112  0
32 -114 0
114 -32  0
-114 113 0
-113 114  0
45 -116 0
116 -45  0
-116 115 0
-115 116  0
75 -118 0
118 -75  0
-118 117 0
-117 118  0
5 -120 0
120 -5  0
-120 119 0
-119 120  0
12 -122 0
122 -12  0
-122 121 0
-121 122  0
22 -124 0
124 -22  0
-124 123 0
-123 124  0
36 -126 0
126 -36  0
-126 125 0
-125 126  0
4 -128 0
128 -4  0
-128 127 0
-127 128  0
11 -130 0
130 -11  0
-130 129 0
-129 130  0
21 -132 0
132 -21  0
-132 131 0
-131 132  0
35 -134 0
134 -35  0
-134 133 0
-133 134  0
9 -136 0
136 -9  0
-136 135 0
-135 136  0
78 -138 0
138 -78  0
-138 137 0
-137 138  0
84 -140 0
140 -84  0
-140 139 0
-139 140  0
90 -142 0
142 -90  0
-142 141 0
-141 142  0
67 -144 0
144 -67  0
-144 143 0
-143 144  0
2 -146 0
146 -2  0
-146 145 0
-145 146  0
145 0
